NAME : kroD100-C-5-1-a.25102.tour
COMMENT : Length = 25102
COMMENT : Found by LKH-3 [Keld Helsgaun] Tue Jul 30 13:14:12 2024
TYPE : TOUR
DIMENSION : 100
TOUR_SECTION
1
41
73
39
71
4
93
44
60
53
5
62
37
19
51
35
30
100
2
48
92
55
87
26
95
56
10
9
20
25
18
6
40
83
3
59
85
64
43
77
91
54
63
16
96
86
69
15
84
46
52
8
66
38
81
34
11
90
17
94
32
97
98
49
70
89
23
42
22
58
29
36
67
75
7
74
61
76
80
72
57
78
31
99
45
33
68
14
12
28
21
47
82
65
27
24
88
79
13
50
-1
EOF
